param n := 50;
param c := 150;
param w := 
1 149
2 147
3 144
4 141
5 137
6 135
7 135
8 132
9 128
10 127
11 120
12 120
13 119
14 118
15 115
16 103
17 102
18 96
19 92
20 91
21 89
22 77
23 77
24 77
25 76
26 68
27 64
28 58
29 55
30 52
31 49
32 49
33 47
34 43
35 37
36 37
37 36
38 34
39 30
40 29
41 28
42 23
43 23
44 21
45 18
46 18
47 14
48 12
49 11
50 8
;